nbObj= 30;
Capacity= 68;
Profit =[ 87,14,14,48,109,58,21,44,73,43,95,50,100,36,73,51,65,101,51,94,30,55,27,26,83,99,53,18,47,50];
Weight =[ 29,14,25,14,29,30,13,28,19,25,15,31,26,21,18,34,34,18,21,16,19,17,17,34,22,23,20,28,31,21];
